
-2.7
-2.55
-2.45
-2.4
-2.2
-2.15
-2.15
-2.05
-1.8
-1.6
-1.0
-0.8
-0.6
-0.4
-0.3
-0.2
-0.15
-0.15
-0.15
-0.1
-0.1
-0.1
-0.1
-0.1
-0.1
-0.1
-0.1
-0.1
-0.1
-0.1
-0.1
-0.1
-0.1
-0.1
-0.1
-2.75
-2.55
-2.45
-2.35
-2.2
-2.05
-1.95
-1.9
-1.75
-1.6
-1.2
-0.85
-0.7
-0.55
-0.55
-0.55
-0.55
-0.55
-0.5
-0.45
-0.3
-0.25
-0.25
-0.25
-0.25
-0.25
-0.25
-0.25
-0.25
-0.25
-0.2
-0.2
-0.2
-0.2
-0.2
-0.2
-0.2
-0.2
-0.2
-0.2
-0.2
-0.2
-0.2
-0.2
-0.2
-0.2
-0.2
-0.2
-0.2
-0.2
-0.2